<number of tasks>
50

<cycle time>
1000

<order strength>
0.196


<task times>
1 120
2 37
3 189
4 164
5 267
6 228
7 146
8 62
9 349
10 168
11 54
12 183
13 192
14 61
15 156
16 131
17 123
18 289
19 72
20 59
21 37
22 259
23 211
24 212
25 275
26 82
27 179
28 33
29 93
30 343
31 110
32 78
33 75
34 345
35 34
36 20
37 163
38 110
39 223
40 268
41 190
42 239
43 68
44 49
45 83
46 72
47 210
48 171
49 157
50 52

<precedence relations>
1,28
2,9
2,10
2,11
3,15
4,14
5,13
7,12
9,17
10,18
11,16
12,22
13,20
14,19
15,21
15,32
16,28
17,26
18,23
20,24
20,25
21,27
23,28
24,28
25,29
25,30
25,31
25,32
26,31
26,33
26,34
28,35
28,36
28,37
28,38
28,39
29,41
30,40
35,45
36,44
36,46
40,42
41,43
42,48
43,47
45,50
46,49

<end>
